46
1000
200	5
199	3
198	1
197	2
196	2
194	2
193	6
191	3
190	1
189	2
188	1
187	6
185	2
184	6
183	1
182	4
181	1
180	3
179	1
178	3
177	6
176	2
175	4
174	3
173	2
172	1
171	1
170	1
169	4
168	1
166	4
165	4
164	3
163	1
162	2
161	1
160	3
159	1
157	2
156	5
155	3
154	1
153	4
152	2
151	2
150	2
